30
5
993438
0
0
50 47 46 49 44
1
0
63 61 60 58 61
2
0
44 50 42 44 42
3
0
57 56 56 56 56
4
0
53 53 50 51 47
5
0
41 40 40 44 39
6
0
57 65 61 64 59
7
0
53 52 53 52 51
8
0
46 55 50 55 56
9
0
51 49 50 51 51
10
0
38 39 39 39 43
11
0
43 45 43 44 46
12
0
50 52 50 50 53
13
0
34 39 32 33 34
14
0
43 42 40 40 40
15
0
69 65 70 67 63
16
0
35 34 37 33 37
17
0
47 48 51 50 48
18
0
55 56 57 55 57
19
0
56 61 61 59 59
20
0
47 51 50 50 49
21
0
32 32 36 35 33
22
0
38 37 35 35 38
23
0
57 55 55 58 55
24
0
55 54 55 56 54
25
0
53 51 54 59 51
26
0
56 53 55 53 54
27
0
58 52 56 56 54
28
0
40 45 44 43 45
29
0
35 34 31 32 34
